;; unsat

(declare-const x1 sl.list.loc)
(declare-const x2 sl.list.loc)
(declare-const x3 sl.list.loc)
(declare-const x4 sl.list.loc)
(declare-const x5 sl.list.loc)
(declare-const x6 sl.list.loc)
(declare-const x7 sl.list.loc)
(declare-const x8 sl.list.loc)
(declare-const x9 sl.list.loc)
(declare-const x10 sl.list.loc)
(declare-const x11 sl.list.loc)
(declare-const x13 sl.list.loc)
(declare-const x14 sl.list.loc)
(declare-const x15 sl.list.loc)
(declare-const x16 sl.list.loc)
(declare-const x17 sl.list.loc)
(declare-const x18 sl.list.loc)
(declare-const x19 sl.list.loc)
(declare-const x20 sl.list.loc)

(assert (sl.sepcon (sl.sepcon (sl.sepcon (sl.sepcon (sl.sepcon (sl.sepcon (sl.sepcon (sl.sepcon (sl.sepcon (sl.sepcon (sl.sepcon (sl.sepcon (sl.sepcon (sl.sepcon (sl.sepcon (sl.sepcon (sl.sepcon (sl.sepcon (sl.sepcon (sl.sepcon (sl.sepcon (sl.sepcon (sl.sepcon (sl.list.eq sl.list.null sl.list.null)
 (sl.list.neq x6 x16)
)
 (sl.list.neq x6 x9)
)
 (sl.list.neq x6 x13)
)
 (sl.list.neq x3 x18)
)
 (sl.list.neq x3 x16)
)
 (sl.list.neq x3 x19)
)
 (sl.list.neq x3 x15)
)
 (sl.list.neq x7 x11)
)
 (sl.list.neq x7 x20)
)
 (sl.list.neq x9 x18)
)
 (sl.list.neq x9 x16)
)
 (sl.list.neq x9 x20)
)
 (sl.list.neq x2 x10)
)
 (sl.list.neq x15 x17)
)
 (sl.list.neq x8 x18)
)
 (sl.list.neq x8 x17)
)
 (sl.list.neq x1 x13)
)
 (sl.list.neq x1 x2)
)
 (sl.list.neq x4 x13)
)
 (sl.list.neq x4 x20)
)
 (sl.list.neq x13 x14)
)
 (sl.list.neq x16 x19)
)
 (sl.sepcon (sl.sepcon (sl.sepcon (sl.sepcon (sl.sepcon (sl.sepcon (sl.sepcon (sl.sepcon (sl.sepcon (sl.sepcon (sl.sepcon (sl.sepcon (sl.sepcon (sl.sepcon (sl.sepcon (sl.sepcon (sl.sepcon (sl.sepcon (sl.list.seg x5 x20)
 (sl.list.seg x5 x14)
)
 (sl.list.seg x5 x2)
)
 (sl.list.seg x5 x3)
)
 (sl.list.seg x16 x17)
)
 (sl.list.seg x18 x7)
)
 (sl.list.seg x1 x15)
)
 (sl.list.seg x1 x5)
)
 (sl.list.seg x1 x10)
)
 (sl.list.seg x8 x6)
)
 (sl.list.seg x20 x18)
)
 (sl.list.seg x2 x15)
)
 (sl.list.seg x2 x19)
)
 (sl.list.seg x2 x11)
)
 (sl.list.seg x9 x1)
)
 (sl.list.seg x7 x20)
)
 (sl.list.seg x3 x14)
)
 (sl.list.seg x6 x19)
)
 (sl.list.seg x6 x1)
)
)
)

